
List of user-set options:

                                    Name   Value                used
                           compl_inf_tol = 1                     yes
                         constr_viol_tol = 1                     yes
                            dual_inf_tol = 1000                  yes
                           linear_solver = ma97                  yes
                              ma86_small = 1e-30                  no
                                  ma86_u = 0.0001                 no
                              ma97_order = best                  yes
                              ma97_small = 1e-30                 yes
                            ma97_switch1 = at_start              yes
                            ma97_switch2 = od_hd_reuse           yes
                                  ma97_u = 1e-06                 yes
                               ma97_umax = 0.5                   yes
                                max_iter = 1000                  yes
                    max_refinement_steps = 20                    yes
                    min_refinement_steps = 5                     yes
                                 mu_init = 1e-06                 yes
           mu_superlinear_decrease_power = 1.25                  yes
                   nlp_scaling_min_value = 1e-08                 yes
                        option_file_name = Preset_Case:_632_NCP.opt  yes
                             output_file = ./tmp/Preset_Case:_632_NCP.output  yes
                      print_user_options = yes                   yes
        required_infeasibility_reduction = 1                      no
                                     tol = 1e-08                 yes
                   warm_start_bound_frac = 1e-20                 yes
                   warm_start_bound_push = 1e-20                 yes
                   warm_start_init_point = yes                   yes
              warm_start_mult_bound_push = 1e-20                 yes
                warm_start_mult_init_max = 1e+40                 yes
             warm_start_slack_bound_frac = 1e-20                 yes
             warm_start_slack_bound_push = 1e-20                 yes

******************************************************************************
This program contains Ipopt, a library for large-scale nonlinear optimization.
 Ipopt is released as open source code under the Eclipse Public License (EPL).
         For more information visit http://projects.coin-or.org/Ipopt
******************************************************************************

This is Ipopt version 3.12.10, running with linear solver ma97.

Number of nonzeros in equality constraint Jacobian...:   117167
Number of nonzeros in inequality constraint Jacobian.:      213
Number of nonzeros in Lagrangian Hessian.............:    47513

Total number of variables............................:    29977
                     variables with only lower bounds:    11312
                variables with lower and upper bounds:    15135
                     variables with only upper bounds:        0
Total number of equality constraints.................:    29864
Total number of inequality constraints...............:       25
        inequality constraints with only lower bounds:        4
   inequality constraints with lower and upper bounds:        0
        inequality constraints with only upper bounds:       21

iter    objective    inf_pr   inf_du lg(mu)  ||d||  lg(rg) alpha_du alpha_pr  ls
   0 -1.5757157e-01 1.77e-01 2.00e+00  -6.0 0.00e+00    -  0.00e+00 0.00e+00   0
In iteration 0, 8 Slacks too small, adjusting variable bounds
   1 -1.5757157e-01 1.77e-01 6.64e+02  -6.0 1.18e+10    -  6.63e-14 5.97e-19h  1
   2 -1.5757013e-01 1.77e-01 6.66e+02  -6.0 7.23e+01    -  6.88e-06 3.83e-05f  1
   3 -1.5756999e-01 1.77e-01 6.64e+02  -6.0 4.59e+01    -  3.11e-03 4.52e-06h  2
   4 -1.5748636e-01 1.77e-01 6.62e+02  -6.0 6.52e+01    -  8.16e-04 2.25e-03h  1
   5 -1.5732411e-01 1.76e-01 6.60e+02  -6.0 5.82e+01    -  3.23e-03 4.57e-03h  1
   6 -1.5692331e-01 1.74e-01 6.54e+02  -6.0 5.83e+01    -  5.06e-03 1.13e-02h  2
   7 -1.5662989e-01 1.72e-01 6.50e+02  -6.0 5.70e+01    -  2.23e-03 8.35e-03h  3
   8 -1.5611889e-01 1.70e-01 6.43e+02  -6.0 5.45e+01    -  4.88e-03 1.57e-02h  3
   9 -1.5505251e-01 1.65e-01 6.28e+02  -6.0 4.68e+01    -  1.92e-02 2.98e-02h  2
iter    objective    inf_pr   inf_du lg(mu)  ||d||  lg(rg) alpha_du alpha_pr  ls
  10 -1.5362592e-01 1.58e-01 6.14e+02  -6.0 4.67e+01    -  4.70e-03 4.06e-02h  1
  11 -1.5285277e-01 1.54e-01 5.86e+02  -6.0 3.89e+01    -  6.45e-02 2.23e-02h  1
  12 -1.5128719e-01 1.48e-01 9.96e+04  -6.0 6.21e+01    -  1.02e-02 4.25e-02h  1
  13 -1.5092866e-01 1.46e-01 2.16e+05  -6.0 6.15e+01    -  1.11e-01 1.00e-02h  1
  14 -1.4851519e-01 1.37e-01 1.59e+05  -6.0 7.50e+01    -  4.69e-02 6.49e-02h  2
  15 -1.4715069e-01 1.32e-01 2.12e+05  -6.0 7.90e+01    -  6.15e-02 3.83e-02h  3
  16 -1.4539845e-01 1.25e-01 5.63e+05  -6.0 7.08e+01    -  2.05e-01 5.08e-02h  3
  17 -1.4334579e-01 1.17e-01 5.13e+05  -6.0 7.37e+01    -  5.12e-02 6.16e-02h  3
  18 -1.4179160e-01 1.11e-01 6.11e+05  -6.0 6.16e+01    -  1.33e-01 5.03e-02h  3
  19 -1.4057472e-01 1.07e-01 7.94e+05  -6.0 4.63e+01    -  2.17e-01 4.14e-02h  3
iter    objective    inf_pr   inf_du lg(mu)  ||d||  lg(rg) alpha_du alpha_pr  ls
  20 -1.3872442e-01 9.96e-02 7.83e+05  -6.0 4.86e+01    -  1.24e-01 6.73e-02h  2
  21 -1.3680128e-01 9.21e-02 8.47e+05  -6.0 3.74e+01    -  2.66e-01 7.57e-02H  1
  22 -1.3622347e-01 8.96e-02 8.93e+05  -6.0 3.43e+01    -  1.20e-01 2.72e-02h  5
  23 -1.3552509e-01 8.65e-02 8.93e+05  -6.0 3.27e+01    -  8.60e-02 3.42e-02h  3
  24 -1.3494356e-01 8.42e-02 1.01e+06  -6.0 2.72e+01    -  3.21e-01 2.89e-02h  4
  25 -1.3426981e-01 8.37e-02 1.00e+06  -6.0 4.09e+01    -  3.24e-01 3.64e-02h  4
  26 -1.3357308e-01 8.33e-02 9.26e+05  -6.0 5.37e+01    -  3.36e-01 3.94e-02h  3
  27 -1.3320921e-01 8.25e-02 9.02e+05  -6.0 9.56e+01    -  4.18e-02 2.27e-02h  2
  28 -1.3290277e-01 8.17e-02 8.46e+05  -6.0 1.02e+02    -  2.43e-01 2.11e-02h  1
  29 -1.3277185e-01 8.11e-02 8.40e+05  -6.0 1.06e+02    -  1.01e-02 6.79e-03h  5
iter    objective    inf_pr   inf_du lg(mu)  ||d||  lg(rg) alpha_du alpha_pr  ls
  30 -1.3251379e-01 7.99e-02 9.08e+05  -6.0 3.30e+01  -4.0 5.07e-01 1.64e-02h  5
  31 -1.3242180e-01 7.94e-02 8.12e+05  -6.0 4.73e+01  -4.5 3.36e-01 6.36e-03h  6
  32 -1.3244818e-01 7.93e-02 8.02e+05  -6.0 2.92e+02  -5.0 2.14e-02 8.56e-04h  8
  33 -1.3243428e-01 7.91e-02 7.52e+05  -6.0 6.25e+01  -4.5 1.97e-01 1.81e-03h  9
  34 -1.3244251e-01 7.91e-02 7.57e+05  -6.0 5.74e+02  -5.0 1.24e-02 1.58e-04h  8
  35 -1.3242384e-01 7.90e-02 6.99e+05  -6.0 6.06e+01  -4.6 3.41e-01 1.89e-03h  9
  36 -1.3135680e-01 7.63e-02 6.71e+05  -6.0 1.55e+01  -3.3 8.19e-02 7.14e-02h  3
  37 -1.3092574e-01 7.47e-02 8.74e+05  -6.0 1.46e+01  -3.7 4.30e-01 3.18e-02h  5
  38 -1.3009260e-01 7.22e-02 1.03e+06  -6.0 1.40e+01  -3.3 1.90e-01 6.50e-02h  4
  39 -1.2257085e-01 4.09e+00 2.77e+05  -6.0 1.32e+01  -3.8 3.18e-01 7.03e-01w  1
iter    objective    inf_pr   inf_du lg(mu)  ||d||  lg(rg) alpha_du alpha_pr  ls
  40 -1.2591914e-01 1.40e+00 2.65e+05  -6.0 1.21e+01  -4.3 1.03e-04 1.00e+00w  1
  41 -1.2589191e-01 1.09e+00 5.76e+05  -6.0 1.74e+01  -4.7 1.59e-01 4.27e-01w  1
  42 -1.2985755e-01 7.10e-02 1.03e+06  -6.0 9.27e+01    -  3.18e-01 2.20e-02h  5
  43 -1.2935300e-01 6.89e-02 1.07e+06  -6.0 1.28e+01  -3.4 1.24e-01 4.43e-02h  5
  44 -1.2925375e-01 6.83e-02 9.84e+05  -6.0 2.01e+01  -3.9 5.47e-01 1.17e-02h  7
  45 -1.2888753e-01 6.65e-02 1.09e+06  -6.0 1.19e+01  -3.5 1.83e-01 3.50e-02h  5
  46 -1.2885397e-01 6.62e-02 1.05e+06  -6.0 2.98e+01  -3.9 1.31e-01 5.00e-03h  8
  47 -1.2843333e-01 6.44e-02 1.52e+06  -6.0 1.13e+01  -3.5 8.06e-01 4.34e-02h  5
  48 -1.2748124e-01 6.15e-02 3.50e+06  -6.0 1.09e+01  -3.1 9.33e-01 9.62e-02h  3
  49 -1.2729834e-01 6.02e-02 2.30e+06  -6.0 1.09e+01  -3.6 6.05e-01 2.92e-02h  6
iter    objective    inf_pr   inf_du lg(mu)  ||d||  lg(rg) alpha_du alpha_pr  ls
  50 -1.2678112e-01 5.77e-02 3.48e+06  -6.0 9.34e+00  -3.1 1.00e+00 6.39e-02h  4
  51 -1.2668611e-01 5.67e-02 2.50e+06  -6.0 1.27e+01  -3.6 4.73e-01 2.23e-02h  6
  52 -1.2337936e-01 2.57e-01 1.80e+06  -6.0 8.32e+00  -3.2 1.00e+00 4.70e-01w  1
  53 -1.2198819e-01 1.48e+00 3.62e+04  -6.0 5.56e+00  -3.7 9.00e-01 1.00e+00w  1
  54 -1.2376024e-01 5.67e-01 1.21e+06  -6.0 1.31e+01  -4.1 4.00e-01 6.14e-01w  1
  55 -1.2585942e-01 6.30e-02 3.00e+06  -6.0 1.33e+01  -4.6 1.00e+00 1.18e-01h  2
  56 -1.2117666e-01 1.68e-01 1.21e+05  -6.0 7.11e+00  -3.3 1.00e+00 9.67e-01H  1
  57 -1.2114235e-01 8.68e-02 5.12e+05  -6.0 5.75e+00  -3.8 7.47e-01 8.52e-01h  1
  58r-1.2114235e-01 8.68e-02 1.00e+03  -1.5 0.00e+00  -4.2 0.00e+00 2.59e-07R  3
  59r-1.2109373e-01 6.73e-02 1.00e+03  -1.5 9.52e+03    -  1.03e-04 7.50e-05f  1
iter    objective    inf_pr   inf_du lg(mu)  ||d||  lg(rg) alpha_du alpha_pr  ls
  60 -1.2126092e-01 2.11e-03 2.71e+07  -6.0 3.76e-01    -  7.26e-01 1.00e+00h  1
  61 -1.2135749e-01 1.21e-05 8.68e+06  -6.0 5.34e-01    -  8.79e-01 1.00e+00h  1
  62 -1.2241270e-01 4.13e-03 1.22e+06  -6.0 5.12e+00    -  8.60e-01 1.00e+00h  1
  63 -1.2785117e-01 4.15e-02 1.12e+06  -6.0 3.46e+01    -  8.13e-02 9.01e-01h  1
  64 -1.3552077e-01 5.17e-03 9.22e+05  -6.0 4.15e+01    -  1.76e-01 1.00e+00H  1
  65 -1.4289638e-01 3.90e-02 6.76e+05  -6.0 5.29e+01    -  2.67e-01 7.35e-01H  1
  66 -1.4761710e-01 9.67e-02 4.51e+05  -6.0 5.84e+01    -  3.33e-01 4.13e-01f  1
  67 -1.5204214e-01 1.17e-01 3.46e+05  -6.0 3.77e+01    -  2.32e-01 5.38e-01H  1
  68 -1.5328308e-01 1.09e-01 1.64e+05  -6.0 4.04e+01    -  5.27e-01 1.53e-01h  1
  69 -1.5527713e-01 9.98e-02 6.46e+04  -6.0 7.43e+01    -  6.05e-01 1.54e-01h  1
iter    objective    inf_pr   inf_du lg(mu)  ||d||  lg(rg) alpha_du alpha_pr  ls
  70 -1.5820842e-01 1.18e-01 2.94e+04  -6.0 1.49e+02    -  5.45e-01 1.53e-01h  1
  71 -1.6158959e-01 3.69e-01 1.41e+04  -6.0 3.14e+02    -  5.21e-01 1.91e-01h  1
  72 -1.6212870e-01 4.40e-01 9.75e+03  -6.0 1.34e+03    -  3.07e-01 2.23e-02h  1
  73 -1.6406410e-01 2.36e+00 8.37e+03  -6.0 3.14e+03    -  1.41e-01 5.64e-02h  1
  74 -1.6696565e-01 3.52e+00 6.31e+03  -6.0 1.01e+03    -  2.47e-01 1.28e-01h  1
  75 -1.6706832e-01 2.52e+00 2.70e+03  -6.0 1.70e+00  -4.7 5.72e-01 2.83e-01h  1
  76 -1.6745617e-01 8.56e-01 5.83e+02  -6.0 3.90e+00  -5.2 7.84e-01 6.63e-01h  1
  77 -1.6821550e-01 2.86e-01 5.81e+02  -6.0 8.11e+00  -5.7 2.91e-03 7.42e-01h  1
  78 -1.6862947e-01 2.10e-01 6.97e+01  -6.0 2.38e+01  -6.1 9.92e-01 2.60e-01h  1
  79 -1.6897377e-01 1.96e-01 2.33e+02  -6.0 5.24e+01  -6.6 2.42e-04 1.06e-01h  1
iter    objective    inf_pr   inf_du lg(mu)  ||d||  lg(rg) alpha_du alpha_pr  ls
  80 -1.6961012e-01 3.75e-01 2.10e+02  -6.0 1.40e+02  -7.1 1.00e+00 1.05e-01h  1
  81 -1.7029098e-01 4.99e-01 1.98e+02  -6.0 5.93e+02  -7.6 1.00e+00 5.18e-02h  1
  82 -1.7472978e-01 1.85e+00 4.01e+01  -6.0 1.56e+02  -7.2 1.00e+00 8.38e-01h  1
  83 -1.7523416e-01 1.56e+00 4.83e+01  -6.0 8.37e+01  -6.7 2.06e-03 1.92e-01h  1
  84 -1.7789045e-01 6.36e+00 2.12e+01  -6.0 4.14e+02  -7.2 7.31e-01 3.25e-01h  1
  85 -1.7953348e-01 5.43e+00 1.97e+01  -6.0 5.15e+02  -7.7 1.22e-01 1.38e-01h  1
  86 -1.8372336e-01 1.37e+01 5.93e+01  -6.0 8.95e+02  -7.3 3.99e-01 1.77e-01h  1
  87 -1.8637411e-01 1.41e+01 5.61e+01  -6.0 2.32e+02  -6.8 2.50e-01 2.50e-01h  1
  88 -1.8692108e-01 1.36e+01 5.39e+01  -6.0 4.45e+02  -7.3 3.83e-05 5.26e-02h  1
  89 -1.8705838e-01 1.34e+01 5.32e+01  -6.0 1.46e+02  -6.9 1.00e+00 1.38e-02h  1
iter    objective    inf_pr   inf_du lg(mu)  ||d||  lg(rg) alpha_du alpha_pr  ls
  90 -1.8801280e-01 1.25e+01 4.97e+01  -6.0 4.89e+02  -7.4 2.80e-05 7.81e-02h  1
  91 -1.8948492e-01 1.19e+01 4.58e+01  -6.0 8.61e+02  -7.8 1.57e-01 1.02e-01h  1
  92 -1.9064111e-01 1.29e+01 4.08e+01  -6.0 2.70e+02  -7.4 5.66e-01 1.72e-01h  1
  93 -1.9082847e-01 1.30e+01 5.54e+01  -6.0 1.27e+02  -7.0 1.23e-01 4.62e-02h  1
  94 -1.9131510e-01 1.19e+01 6.45e+01  -6.0 2.57e+02  -7.5 3.85e-02 7.89e-02h  1
  95 -1.9157879e-01 1.16e+01 2.42e+04  -6.0 4.02e+02  -7.9 2.11e-01 3.03e-02h  1
  96 -1.9494267e-01 9.74e+00 1.70e+04  -6.0 1.07e+03  -8.4 3.79e-01 1.66e-01h  1
  97 -1.9597663e-01 8.77e+00 1.17e+04  -6.0 4.21e+02  -8.0 4.55e-01 9.45e-02h  1
  98 -1.9915156e-01 7.25e+00 1.03e+04  -6.0 8.75e+02  -8.5 6.21e-02 1.78e-01h  1
  99 -2.0076757e-01 6.35e+00 7.17e+03  -6.0 7.63e+02  -8.0 1.93e-01 1.34e-01h  1
iter    objective    inf_pr   inf_du lg(mu)  ||d||  lg(rg) alpha_du alpha_pr  ls
 100 -2.0371665e-01 2.49e+00 1.44e+04  -6.0 1.96e+02  -7.6 2.63e-01 6.23e-01h  1
 101 -2.0652617e-01 2.44e+00 7.74e+03  -6.0 3.83e+02  -8.1 4.65e-01 4.60e-01h  1
 102 -2.0734560e-01 1.98e+00 6.47e+03  -6.0 1.55e+02  -7.7 1.39e-02 1.76e-01h  1
 103 -2.0837017e-01 1.83e+00 5.77e+03  -6.0 4.39e+02  -8.1 3.68e-03 1.21e-01h  1
 104 -2.0837710e-01 1.35e+00 1.27e+04  -6.0 4.71e+00  -5.0 3.80e-01 2.64e-01h  1
 105 -2.0842322e-01 1.26e+00 1.87e+04  -6.0 2.42e+01  -5.5 1.09e-04 6.52e-02h  1
 106 -2.0842830e-01 1.18e+00 1.87e+04  -6.0 1.53e+01  -6.0 4.79e-01 6.43e-02h  1
 107 -2.0845752e-01 1.13e+00 1.79e+04  -6.0 2.12e+01  -6.4 5.25e-05 4.10e-02h  1
 108 -2.0846654e-01 1.13e+00 1.77e+04  -6.0 5.14e+01  -6.9 8.58e-01 6.98e-03h  1
 109 -2.0853100e-01 1.09e+00 1.69e+04  -6.0 8.63e+01  -6.5 7.84e-04 4.51e-02h  1
iter    objective    inf_pr   inf_du lg(mu)  ||d||  lg(rg) alpha_du alpha_pr  ls
 110 -2.0865126e-01 1.06e+00 1.60e+04  -6.0 6.33e+02  -7.0 3.55e-01 3.75e-02h  1
 111 -2.0916380e-01 1.16e+00 1.39e+04  -6.0 1.07e+03  -7.4 2.17e-01 9.82e-02h  1
 112 -2.0928354e-01 1.14e+00 1.03e+04  -6.0 1.26e+03  -7.9 4.82e-01 2.04e-02h  1
 113 -2.1298750e-01 4.36e+00 2.33e+04  -6.0 1.70e+03  -8.4 7.25e-01 3.12e-01h  1
 114 -2.1495589e-01 1.02e+01 2.05e+04  -6.0 9.13e+03  -8.9 6.22e-02 7.23e-02h  1
 115 -2.1460219e-01 1.09e+01 1.40e+04  -6.0 3.01e+03  -8.4 9.18e-02 1.27e-01H  1
 116 -2.1516374e-01 1.03e+01 1.84e+04  -6.0 1.52e+03  -8.0 1.52e-01 9.26e-02h  1
 117 -2.1565539e-01 9.91e+00 4.61e+04  -6.0 1.74e+03  -8.5 1.55e-01 4.59e-02h  1
 118 -2.1584460e-01 9.31e+00 5.69e+04  -6.0 1.53e+03  -8.1 1.96e-01 6.05e-02h  1
 119 -2.1722544e-01 8.35e+00 1.79e+07  -6.0 1.98e+03  -8.6 8.47e-04 1.04e-01h  1
iter    objective    inf_pr   inf_du lg(mu)  ||d||  lg(rg) alpha_du alpha_pr  ls
 120 -2.1838721e-01 8.11e+00 1.12e+07  -6.0 1.55e+03  -8.1 2.77e-02 3.76e-01h  1
 121 -2.1865250e-01 7.50e+00 8.82e+06  -6.0 1.23e+03  -7.7 1.59e-02 2.11e-01h  1
 122 -2.2105795e-01 7.57e+00 5.73e+06  -6.0 1.55e+03  -8.2 9.88e-02 3.51e-01h  1
 123 -2.2081539e-01 6.93e+00 5.04e+06  -6.0 1.06e+03  -7.7 1.35e-02 1.20e-01h  1
 124 -2.2550154e-01 6.06e+00 4.38e+06  -6.0 6.00e+03  -8.2 1.13e-01 1.30e-01h  1
 125 -2.2580148e-01 5.76e+00 4.16e+06  -6.0 1.14e+03  -7.8 9.23e-02 5.22e-02h  1
 126 -2.2586096e-01 5.62e+00 4.05e+06  -6.0 1.32e+03  -8.3 3.56e-01 2.65e-02h  1
 127 -2.2609469e-01 5.61e+00 4.03e+06  -6.0 6.66e+04  -8.8 3.80e-02 2.58e-03h  1
Error in an AMPL evaluation. Run with "halt_on_ampl_error yes" to see details.
Warning: Cutting back alpha due to evaluation error
 128 -2.2674085e-01 6.64e+00 2.71e+06  -6.0 1.26e+03  -8.3 6.56e-01 3.27e-01h  2
 129 -2.2680891e-01 6.03e+00 2.39e+06  -6.0 8.56e+02  -7.9 3.17e-01 1.18e-01h  3
iter    objective    inf_pr   inf_du lg(mu)  ||d||  lg(rg) alpha_du alpha_pr  ls
 130 -2.2780721e-01 5.55e+00 1.66e+06  -6.0 2.03e+03  -8.4 4.66e-01 3.08e-01h  1
 131 -2.2806614e-01 4.84e+00 1.44e+06  -6.0 1.55e+03  -8.0 2.37e-01 1.31e-01h  1
 132 -2.2835854e-01 1.44e+01 9.15e+05  -6.0 5.11e+02  -7.5 3.59e-01 3.68e-01h  1
 133 -2.2938135e-01 1.48e+01 8.95e+05  -6.0 1.72e+04  -8.0 1.05e-02 2.09e-02h  1
 134 -2.2946588e-01 1.42e+01 8.57e+05  -6.0 6.69e+02  -7.6 8.78e-02 4.34e-02h  1
 135 -2.3143086e-01 2.56e+01 6.09e+05  -6.0 7.39e+02  -8.1 7.36e-02 2.90e-01f  1
 136 -2.3165606e-01 2.49e+01 5.62e+05  -6.0 2.79e+03  -8.5 4.28e-03 7.68e-02h  1
 137 -2.3275040e-01 1.87e+01 4.07e+05  -6.0 4.01e+02  -8.1 2.89e-01 2.77e-01h  1
 138 -2.3344356e-01 1.62e+01 3.51e+05  -6.0 4.51e+02  -8.6 4.66e-01 1.37e-01h  1
 139 -2.3713499e-01 8.88e+00 1.95e+05  -6.0 8.87e+02  -9.1 2.14e-01 4.46e-01h  1
iter    objective    inf_pr   inf_du lg(mu)  ||d||  lg(rg) alpha_du alpha_pr  ls
 140 -2.3990194e-01 1.36e+01 1.63e+05  -6.0 5.04e+03  -9.5 1.16e-02 1.62e-01h  1
 141 -2.3982827e-01 1.34e+01 1.61e+05  -6.0 7.12e+01  -5.5 2.56e-03 1.30e-02h  1
 142 -2.3988438e-01 1.30e+01 1.56e+05  -6.0 1.42e+02  -6.0 1.58e-02 3.25e-02h  1
 143 -2.3984426e-01 1.25e+01 1.50e+05  -6.0 1.63e+02  -6.5 6.29e-03 3.68e-02h  1
 144 -2.3988234e-01 1.20e+01 1.44e+05  -6.0 2.03e+02  -6.9 1.74e-02 4.08e-02h  1
 145 -2.4016317e-01 1.07e-01 5.10e+03  -6.0 8.59e+01  -7.4 3.89e-03 1.00e+00f  1
 146 -2.4011548e-01 5.41e-02 2.57e+03  -6.0 5.07e-01  -4.3 5.23e-01 4.95e-01h  1
 147 -2.4002901e-01 2.68e-03 1.28e+02  -6.0 1.16e+00  -4.8 4.41e-01 9.53e-01h  1
 148 -2.4002054e-01 1.17e-03 4.85e+01  -6.0 7.18e-01  -5.2 6.29e-02 6.80e-01f  1
 149 -2.3999601e-01 7.10e-03 8.72e+00  -6.0 1.36e+00  -5.7 7.57e-01 1.00e+00f  1
iter    objective    inf_pr   inf_du lg(mu)  ||d||  lg(rg) alpha_du alpha_pr  ls
 150 -2.3999272e-01 8.38e-03 2.61e+01  -6.0 2.45e+00  -6.2 2.66e-01 1.00e+00h  1
 151 -2.4009279e-01 5.24e-02 1.68e+01  -6.0 1.32e+01  -6.7 4.82e-01 1.00e+00h  1
 152 -2.4024117e-01 7.69e-02 1.50e+01  -6.0 2.21e+01  -7.1 4.93e-01 9.02e-01h  1
 153 -2.4064640e-01 7.15e-02 7.79e-01  -6.0 5.74e+01  -7.6 1.00e+00 1.00e+00f  1
 154 -2.4154382e-01 1.76e+00 1.86e+01  -6.0 1.32e+02  -8.1 6.36e-01 7.95e-01h  1
 155 -2.4184796e-01 1.55e+00 1.02e+03  -6.0 3.41e+02  -8.6 7.36e-01 1.18e-01h  1
 156 -2.4587823e-01 3.23e+00 6.81e+01  -6.0 8.40e+02  -9.0 2.09e-01 6.09e-01h  1
 157 -2.4821932e-01 8.50e+00 3.29e+02  -6.0 4.10e+03  -9.5 6.99e-02 1.34e-01h  1
 158 -2.5004056e-01 1.81e+01 3.89e+02  -6.0 4.48e+04 -10.0 2.19e-03 1.48e-02h  1
 159 -2.5034525e-01 1.75e+01 2.75e+02  -6.0 1.98e+03  -9.6 5.15e-02 3.29e-02h  1
iter    objective    inf_pr   inf_du lg(mu)  ||d||  lg(rg) alpha_du alpha_pr  ls
 160 -2.5119599e-01 1.97e+01 2.82e+02  -6.0 5.13e+04 -10.1 4.24e-03 6.08e-03h  1
 161 -2.5218421e-01 1.98e+01 4.75e+02  -6.0 3.97e+03  -9.6 2.02e-01 5.61e-02h  1
 162 -2.5407265e-01 1.67e+01 3.55e+02  -6.0 3.22e+03 -10.1 1.43e-01 1.57e-01h  1
 163 -2.5568793e-01 1.41e+01 1.07e+03  -6.0 2.95e+03 -10.6 3.48e-01 1.56e-01h  1
 164 -2.5687942e-01 1.15e+01 3.27e+02  -6.0 2.03e+03 -10.2 4.97e-02 1.83e-01h  1
 165 -2.5780238e-01 1.54e+01 3.29e+01  -6.0 6.85e+03 -10.6 9.95e-02 1.51e-01h  1
 166 -2.5876915e-01 1.61e+01 1.75e+02  -6.0 2.96e+03 -10.2 2.54e-01 2.74e-01h  1
 167 -2.5902098e-01 7.74e+01 5.46e+02  -6.0 2.87e+04 -10.7 2.37e-02 6.02e-02h  1
 168 -2.5903603e-01 7.72e+01 5.55e+02  -6.0 9.84e+03 -10.3 1.82e-03 2.82e-03h  1
 169 -2.5911506e-01 7.00e+01 1.27e+03  -6.0 3.38e+03 -10.7 1.04e-01 1.75e-01h  1
iter    objective    inf_pr   inf_du lg(mu)  ||d||  lg(rg) alpha_du alpha_pr  ls
 170 -2.5924567e-01 6.48e+01 6.11e+02  -6.0 4.68e+03 -11.2 1.12e-01 7.44e-02h  1
 171 -2.5930103e-01 5.82e+01 7.22e+02  -6.0 1.54e+04 -11.7 9.11e-02 1.02e-01h  1
 172 -2.5943208e-01 4.53e+01 2.65e+03  -6.0 3.70e+03 -11.3 2.53e-01 3.79e-01h  1
 173 -2.5945630e-01 5.33e+01 7.76e+03  -6.0 3.90e+03 -10.8 6.64e-02 3.48e-01h  1
 174 -2.5945566e-01 5.28e+01 1.43e+04  -6.0 5.24e+02  -7.7 1.41e-02 8.95e-03h  1
 175 -2.5939094e-01 1.10e+01 2.00e+04  -6.0 5.01e+01  -7.3 2.59e-03 7.93e-01f  1
 176 -2.5935335e-01 1.49e-03 5.44e+02  -6.0 7.45e+00  -6.8 7.49e-01 1.00e+00h  1
 177 -2.5934886e-01 3.57e-03 4.46e+02  -6.0 5.78e+01  -7.3 2.74e-01 1.85e-01h  1
 178 -2.5934968e-01 2.85e-03 3.06e+02  -6.0 3.23e+01  -7.8 6.44e-01 3.30e-01f  1
 179 -2.5934886e-01 3.30e-03 2.95e+02  -6.0 7.67e+01  -8.3 1.33e-01 3.66e-02h  1
iter    objective    inf_pr   inf_du lg(mu)  ||d||  lg(rg) alpha_du alpha_pr  ls
 180 -2.5932997e-01 3.28e-03 1.21e+01  -6.0 1.52e+01  -8.8 3.19e-01 1.00e+00f  1
 181 -2.5933589e-01 4.06e-03 5.83e+00  -6.0 4.03e+01  -9.2 1.00e+00 3.04e-01H  1
 182 -2.5937098e-01 2.13e-01 1.41e-01  -6.0 1.16e+02  -9.7 1.00e+00 1.00e+00h  1
 183 -2.5935420e-01 1.48e+00 8.80e-02  -6.0 3.45e+02 -10.2 1.00e+00 9.81e-01h  1
 184 -2.5934470e-01 6.70e-01 1.11e-02  -6.0 1.22e+02  -9.8 1.00e+00 9.93e-01h  1
 185 -2.5933238e-01 3.34e+00 2.01e+00  -6.0 4.26e+02 -10.2 1.00e+00 8.08e-01h  1
 186 -2.5930737e-01 1.01e+01 7.72e+00  -6.0 9.08e+02 -10.7 6.12e-01 1.00e+00h  1
 187 -2.5930600e-01 1.16e+01 4.04e+01  -6.0 1.23e+04 -11.2 2.24e-01 3.22e-02h  2
 188 -2.5930343e-01 1.16e+01 1.32e+02  -6.0 5.16e+03    -  1.00e+00 3.88e-02h  2
 189 -2.5928273e-01 6.84e-02 1.21e+01  -6.0 4.95e+02    -  9.31e-01 1.00e+00h  1
iter    objective    inf_pr   inf_du lg(mu)  ||d||  lg(rg) alpha_du alpha_pr  ls
 190 -2.5927961e-01 1.43e-02 5.59e-02  -6.0 1.11e+02  -9.9 1.00e+00 1.00e+00H  1
 191 -2.5927934e-01 8.33e-01 1.96e+01  -6.0 1.07e+03    -  1.00e+00 1.55e-01h  2
 192 -2.5927883e-01 3.70e-01 9.51e+00  -6.0 4.69e+02 -10.3 1.00e+00 1.90e-01h  2
 193 -2.5927834e-01 6.79e-01 1.68e+01  -6.0 9.28e+02 -10.8 1.00e+00 1.93e-01h  2
 194 -2.5927707e-01 1.62e+00 4.23e+01  -6.0 2.02e+03    -  1.00e+00 1.48e-01h  2
 195 -2.5927642e-01 1.18e+00 4.49e+00  -6.0 3.48e+02    -  1.00e+00 4.32e-01h  2
 196 -2.5927784e-01 1.04e-01 3.33e-03  -6.0 9.59e+01    -  1.00e+00 1.00e+00h  1
 197 -2.5927796e-01 2.18e-04 3.23e-05  -6.0 4.45e+00    -  1.00e+00 1.00e+00h  1
 198 -2.5927796e-01 1.65e-08 5.34e-10  -6.0 3.80e-02    -  1.00e+00 1.00e+00h  1
 199 -2.5986016e-01 2.12e+00 2.61e+01  -7.5 2.78e+03    -  3.63e-01 2.71e-01f  1
iter    objective    inf_pr   inf_du lg(mu)  ||d||  lg(rg) alpha_du alpha_pr  ls
 200 -2.6006202e-01 2.44e+00 8.56e+01  -7.5 2.66e+03    -  5.33e-01 1.80e-01h  1
 201 -2.6006396e-01 2.43e+00 9.63e+01  -7.5 3.79e+03  -9.5 1.28e-01 1.25e-03h  1
 202 -2.6037558e-01 3.80e+00 6.48e+01  -7.5 2.78e+03    -  2.97e-01 3.14e-01h  1
 203 -2.6047114e-01 4.02e+00 4.89e+01  -7.5 1.05e+03 -10.0 2.43e-01 2.45e-01h  1
 204 -2.6052198e-01 4.39e+00 8.59e+01  -7.5 1.83e+03 -10.4 5.07e-01 1.21e-01h  1
 205 -2.6063400e-01 3.86e+00 6.68e+01  -7.5 2.39e+03    -  2.60e-01 2.40e-01h  1
 206 -2.6081506e-01 2.30e+00 2.77e+01  -7.5 9.26e+02 -10.9 7.92e-01 6.79e-01h  1
 207 -2.6084978e-01 1.05e+00 1.25e+01  -7.5 8.04e+02 -11.4 1.00e+00 6.60e-01h  1
 208 -2.6085933e-01 7.59e-01 7.61e+00  -7.5 4.91e+02 -11.9 6.28e-01 3.80e-01h  1
 209 -2.6086344e-01 1.23e+00 1.12e+00  -7.5 4.37e+02 -12.4 2.12e-01 1.00e+00h  1
iter    objective    inf_pr   inf_du lg(mu)  ||d||  lg(rg) alpha_du alpha_pr  ls
 210 -2.6086484e-01 8.27e-01 2.96e-01  -7.5 2.55e+02    -  1.00e+00 8.57e-01h  1
 211 -2.6086408e-01 2.20e-01 6.50e-03  -7.5 1.11e+02    -  1.00e+00 1.00e+00h  1
 212 -2.6086384e-01 4.46e-04 2.00e-05  -7.5 5.22e+00    -  1.00e+00 1.00e+00h  1
 213 -2.6086384e-01 1.62e-08 2.78e-10  -7.5 3.72e-02    -  1.00e+00 1.00e+00h  1
 214 -2.6086532e-01 3.54e-01 8.42e+00  -9.0 8.81e+02    -  7.49e-01 1.98e-01h  1
 215 -2.6086740e-01 2.05e-01 7.45e-01  -9.0 1.51e+02 -11.9 8.17e-01 8.81e-01h  1
 216 -2.6086730e-01 1.22e-02 3.96e-01  -9.0 3.40e+02 -12.4 4.66e-01 1.00e+00H  1
 217 -2.6086755e-01 1.54e+01 2.08e-01  -9.0 1.15e+03 -12.9 4.76e-01 1.00e+00h  1
 218 -2.6086773e-01 7.51e+00 1.95e-01  -9.0 7.71e+02 -13.4 5.93e-02 1.00e+00h  1
 219 -2.6086831e-01 9.40e+01 1.20e-01  -9.0 3.70e+03 -12.9 3.83e-01 7.36e-01h  1
iter    objective    inf_pr   inf_du lg(mu)  ||d||  lg(rg) alpha_du alpha_pr  ls
 220 -2.6086806e-01 6.16e+01 2.26e+00  -9.0 2.14e+03 -11.6 1.00e+00 5.00e-01h  2
 221 -2.6086845e-01 1.78e+01 1.59e+00  -9.0 1.10e+03 -12.1 5.93e-01 1.00e+00h  1
 222 -2.6086874e-01 5.47e+00 8.97e-04  -9.0 6.11e+02 -12.6 1.00e+00 1.00e+00h  1
 223 -2.6086990e-01 7.60e+01 8.42e-02  -9.0 4.25e+03 -13.0 1.79e-01 5.80e-01h  1
 224 -2.6087145e-01 5.98e+01 6.53e-01  -9.0 1.89e+03 -12.6 3.76e-02 1.00e+00h  1
 225 -2.6087190e-01 4.41e+01 1.16e-01  -9.0 1.78e+03 -13.1 1.01e-01 4.50e-01h  1
 226 -2.6087258e-01 5.13e+01 2.19e+02  -9.0 1.67e+03 -10.9 1.69e-03 1.00e+00h  1
 227 -2.6087236e-01 4.70e-01 3.47e-01  -9.0 2.07e+02 -11.3 6.77e-02 1.00e+00h  1
 228 -2.6087243e-01 1.90e-02 9.89e-05  -9.0 3.58e+01 -10.9 1.00e+00 1.00e+00h  1
 229 -2.6087250e-01 1.75e-01 3.94e-05  -9.0 1.09e+02 -11.4 1.00e+00 1.00e+00h  1
iter    objective    inf_pr   inf_du lg(mu)  ||d||  lg(rg) alpha_du alpha_pr  ls
 230 -2.6087271e-01 3.12e+00 2.97e-03  -9.0 3.51e+02 -11.9 5.18e-01 1.00e+00h  1
 231 -2.6087345e-01 2.13e+01 5.38e-03  -9.0 1.20e+03 -12.3 1.00e+00 1.00e+00h  1
 232 -2.6087467e-01 6.02e+01 1.87e-02  -9.0 3.70e+03 -12.8 5.19e-01 4.77e-01h  1
 233 -2.6087467e-01 4.52e+00 9.33e-04  -9.0 5.93e+02 -12.4 1.00e+00 1.00e+00h  1
 234 -2.6087618e-01 9.04e+01 8.33e-02  -9.0 5.52e+03 -12.9 4.34e-01 4.77e-01h  1
 235 -2.6087682e-01 5.99e+01 2.54e-01  -9.0 3.15e+03    -  3.30e-01 3.59e-01h  1
 236 -2.6087683e-01 5.99e+01 1.25e+00  -9.0 1.76e+05    -  5.67e-03 1.86e-04h  6
 237 -2.6087717e-01 5.85e+01 9.43e-01  -9.0 5.10e+03    -  1.23e-01 1.32e-01h  2
 238 -2.6087746e-01 5.65e+01 7.37e-01  -9.0 5.31e+03    -  7.27e-02 8.69e-02h  2
 239 -2.6087813e-01 5.23e+01 4.00e-01  -9.0 3.12e+03    -  1.52e-01 2.83e-01h  1
iter    objective    inf_pr   inf_du lg(mu)  ||d||  lg(rg) alpha_du alpha_pr  ls
 240 -2.6087835e-01 4.77e+01 3.41e-01  -9.0 3.77e+03    -  1.00e-01 9.90e-02h  2
 241 -2.6087858e-01 4.44e+01 1.29e+01  -9.0 4.86e+03    -  3.05e-01 7.92e-02h  1
 242 -2.6088087e-01 6.35e+01 3.55e+02  -9.0 2.00e+03    -  6.15e-02 1.00e+00h  1
 243 -2.6088117e-01 5.54e+01 3.04e+02  -9.0 4.93e+03    -  1.38e-01 1.45e-01h  2
 244 -2.6088125e-01 5.38e+01 2.94e+02  -9.0 9.03e+03    -  3.10e-02 3.03e-02h  3
 245 -2.6088158e-01 1.08e+01 5.24e+00  -9.0 6.92e+02    -  6.28e-02 1.00e+00h  1
 246 -2.6088229e-01 1.63e+01 2.90e+00  -9.0 9.73e+02    -  9.46e-02 1.00e+00h  1
 247 -2.6088317e-01 5.09e+01 2.78e+00  -9.0 4.48e+03    -  1.09e-01 3.33e-01h  1
 248 -2.6088380e-01 3.96e+01 1.96e+01  -9.0 1.38e+03    -  5.05e-03 1.00e+00h  1
 249 -2.6088373e-01 2.76e+01 1.37e+01  -9.0 2.35e+02    -  8.75e-01 3.06e-01h  1
iter    objective    inf_pr   inf_du lg(mu)  ||d||  lg(rg) alpha_du alpha_pr  ls
 250 -2.6088354e-01 1.38e+01 6.85e+00  -9.0 9.29e+02    -  4.29e-01 5.00e-01h  2
 251 -2.6088341e-01 4.16e+00 2.05e+00  -9.0 1.58e+02    -  1.00e+00 6.99e-01h  1
 252 -2.6088333e-01 9.03e-02 7.22e-05  -9.0 6.52e+01    -  1.00e+00 1.00e+00h  1
 253 -2.6088333e-01 1.99e-04 1.16e-06  -9.0 2.90e+00    -  1.00e+00 1.00e+00h  1
 254 -2.6088333e-01 3.46e-10 2.31e-13  -9.0 4.13e-03    -  1.00e+00 1.00e+00h  1

Number of Iterations....: 254

                                   (scaled)                 (unscaled)
Objective...............:  -2.6088333380365053e-01   -2.6088333380365053e-01
Dual infeasibility......:   2.3074680721181312e-13    2.3074680721181312e-13
Constraint violation....:   2.8318306608075133e-10    3.4560798667371273e-10
Complementarity.........:   9.0909091496788549e-10    9.0909091496788549e-10
Overall NLP error.......:   9.0909091496788549e-10    9.0909091496788549e-10


Number of objective function evaluations             = 520
Number of objective gradient evaluations             = 255
Number of equality constraint evaluations            = 521
Number of inequality constraint evaluations          = 521
Number of equality constraint Jacobian evaluations   = 256
Number of inequality constraint Jacobian evaluations = 256
Number of Lagrangian Hessian evaluations             = 254
Total CPU secs in IPOPT (w/o function evaluations)   =    578.078
Total CPU secs in NLP function evaluations           =      9.161

EXIT: Optimal Solution Found.
